Grasp exp. instance_n_15_m_5_id_1.lp tipoLifted 0 szPool 5 nIteration 20 alpha 0.6 
Academic license - for non-commercial use only
Read LP format model from file ../input/instancesGenerated/instance_n_15_m_5_id_1.lp
Reading time = 0.00 seconds
: 5 rows, 15 columns, 75 nonzeros
Optimize a model with 5 rows, 15 columns and 75 nonzeros
Variable types: 0 continuous, 15 integer (15 binary)
Coefficient statistics:
  Matrix range     [1e+00, 1e+01]
  Objective range  [1e+00, 1e+01]
  Bounds range     [1e+00, 1e+00]
  RHS range        [4e+01, 5e+01]
Found heuristic solution: objective 26.0000000

Explored 0 nodes (0 simplex iterations) in 0.00 seconds
Thread count was 1 (of 8 available processors)

Solution count 1: 26 
No other solutions better than 0

Solution limit reached
Best objective 2.600000000000e+01, best bound -, gap -
C_1:	 7.00 x_1  = 0.000000 + 6.00 x_2  = 1.000000 + 1.00 x_3  = 1.000000 + 2.00 x_4  = 0.500000 + 1.00 x_5  = 0.000000 + 3.00 x_6  = 0.000000 + 4.00 x_7  = 1.000000 + 6.00 x_8  = 0.000000 + 8.00 x_9  = 1.000000 + 10.00 x_10  = 1.000000 + 2.00 x_11  = 1.000000 + 5.00 x_12  = 0.000000 + 10.00 x_13  = 0.000000 + 2.00 x_14  = 0.000000 + 4.00 x_15  = 0.000000 <= 35.00
C_2:	 7.00 x_1  = 0.000000 + 4.00 x_2  = 1.000000 + 10.00 x_3  = 1.000000 + 8.00 x_4  = 0.500000 + 6.00 x_5  = 0.000000 + 3.00 x_6  = 0.000000 + 3.00 x_7  = 1.000000 + 7.00 x_8  = 0.000000 + 6.00 x_9  = 1.000000 + 2.00 x_10  = 1.000000 + 3.00 x_11  = 1.000000 + 3.00 x_12  = 0.000000 + 4.00 x_13  = 0.000000 + 7.00 x_14  = 0.000000 + 6.00 x_15  = 0.000000 <= 39.00
C_3:	 8.00 x_1  = 0.000000 + 3.00 x_2  = 1.000000 + 1.00 x_3  = 1.000000 + 1.00 x_4  = 0.500000 + 6.00 x_5  = 0.000000 + 3.00 x_6  = 0.000000 + 5.00 x_7  = 1.000000 + 10.00 x_8  = 0.000000 + 9.00 x_9  = 1.000000 + 3.00 x_10  = 1.000000 + 9.00 x_11  = 1.000000 + 2.00 x_12  = 0.000000 + 9.00 x_13  = 0.000000 + 10.00 x_14  = 0.000000 + 5.00 x_15  = 0.000000 <= 42.00
C_4:	 4.00 x_1  = 0.000000 + 6.00 x_2  = 1.000000 + 9.00 x_3  = 1.000000 + 4.00 x_4  = 0.500000 + 6.00 x_5  = 0.000000 + 4.00 x_6  = 0.000000 + 8.00 x_7  = 1.000000 + 8.00 x_8  = 0.000000 + 10.00 x_9  = 1.000000 + 3.00 x_10  = 1.000000 + 9.00 x_11  = 1.000000 + 4.00 x_12  = 0.000000 + 6.00 x_13  = 0.000000 + 4.00 x_14  = 0.000000 + 10.00 x_15  = 0.000000 <= 47.00
C_5:	 1.00 x_1  = 0.000000 + 2.00 x_2  = 1.000000 + 5.00 x_3  = 1.000000 + 3.00 x_4  = 0.500000 + 4.00 x_5  = 0.000000 + 10.00 x_6  = 0.000000 + 6.00 x_7  = 1.000000 + 8.00 x_8  = 0.000000 + 9.00 x_9  = 1.000000 + 6.00 x_10  = 1.000000 + 2.00 x_11  = 1.000000 + 9.00 x_12  = 0.000000 + 9.00 x_13  = 0.000000 + 2.00 x_14  = 0.000000 + 9.00 x_15  = 0.000000 <= 42.00
Solution initial: 48.500000 
Number Constraints Used in Cover:5
GRASP Method!
Number cuts repeat: 0
value: 48.500000
Number Constraints Used in Cover:13
GRASP Method!
Number cuts repeat: 0
value: 48.500000
Number Constraints Used in Cover:19
GRASP Method!
Number cuts repeat: 0
value: 48.500000
Number Constraints Used in Cover:27
GRASP Method!
Number cuts repeat: 0
value: 48.500000
Number Constraints Used in Cover:33
GRASP Method!
Number cuts repeat: 0
value: 48.500000
Number Constraints Used in Cover:39
GRASP Method!
Number cuts repeat: 0
value: 48.500000
Number Constraints Used in Cover:46
GRASP Method!
Number cuts repeat: 0
value: 48.500000
Number Constraints Used in Cover:55
GRASP Method!
Number cuts repeat: 0
value: 48.500000
Number Constraints Used in Cover:63
GRASP Method!
Number cuts repeat: 0
value: 48.333333
Number Constraints Used in Cover:69
GRASP Method!
Number cuts repeat: 0
value: 48.333333
Number Constraints Used in Cover:75
GRASP Method!
Number cuts repeat: 0
value: 48.333333
Number Constraints Used in Cover:79
GRASP Method!
Number cuts repeat: 0
value: 48.333333
Number Constraints Used in Cover:84
GRASP Method!
Number cuts repeat: 0
value: 48.333333
Number Constraints Used in Cover:95
GRASP Method!
Number cuts repeat: 0
value: 48.333333
Number Constraints Used in Cover:114
GRASP Method!
Number cuts repeat: 0
value: 48.333333
Number Constraints Used in Cover:124
GRASP Method!
Number cuts repeat: 0
value: 48.333333
Number Constraints Used in Cover:131
GRASP Method!
Number cuts repeat: 0
value: 48.333333
Number Constraints Used in Cover:147
GRASP Method!
Number cuts repeat: 0
value: 48.333333
Number Constraints Used in Cover:160
GRASP Method!
Number cuts repeat: 0
value: 48.333333
Number Constraints Used in Cover:171
GRASP Method!
Number cuts repeat: 0
value: 48.333333
Number Constraints Used in Cover:179
GRASP Method!
Number cuts repeat: 0
value: 48.333333
Number Constraints Used in Cover:190
GRASP Method!
Number cuts repeat: 0
value: 48.333333
Number Constraints Used in Cover:203
GRASP Method!
Number cuts repeat: 0
value: 48.333333
Number Constraints Used in Cover:208
GRASP Method!
Number cuts repeat: 0
value: 48.333333
Number Constraints Used in Cover:213
GRASP Method!
Number cuts repeat: 0
value: 48.333333
Number Constraints Used in Cover:225
GRASP Method!
Number cuts repeat: 0
value: 48.333333
Number Constraints Used in Cover:233
GRASP Method!
Number cuts repeat: 0
value: 48.333333
Number Constraints Used in Cover:240
GRASP Method!
Number cuts repeat: 0
value: 48.333333
Number Constraints Used in Cover:250
GRASP Method!
Number cuts repeat: 0
value: 48.333333
Number Constraints Used in Cover:256
GRASP Method!
Number cuts repeat: 0
value: 48.333333
Number Constraints Used in Cover:260
GRASP Method!
Number cuts repeat: 0
value: 48.333333
Number Constraints Used in Cover:267
GRASP Method!
Number cuts repeat: 0
value: 48.333333
Number Constraints Used in Cover:274
GRASP Method!
Number cuts repeat: 0
value: 48.333333
Number Constraints Used in Cover:280
GRASP Method!
Number cuts repeat: 0
value: 48.333333
Number Constraints Used in Cover:291
GRASP Method!
Number cuts repeat: 0
value: 48.333333
Number Constraints Used in Cover:301
GRASP Method!
Number cuts repeat: 0
value: 48.333333
Number Constraints Used in Cover:313
GRASP Method!
Number cuts repeat: 0
value: 48.333333
Number Constraints Used in Cover:327
GRASP Method!
Number cuts repeat: 0
value: 48.333333
Number Constraints Used in Cover:336
GRASP Method!
Number cuts repeat: 0
value: 48.333333
Number Constraints Used in Cover:346
GRASP Method!
Number cuts repeat: 0
value: 48.333333
Number Constraints Used in Cover:358
GRASP Method!
Number cuts repeat: 0
value: 48.333333
Number Constraints Used in Cover:362
GRASP Method!
Number cuts repeat: 0
value: 48.333333
Number Constraints Used in Cover:368
GRASP Method!
Number cuts repeat: 0
value: 48.333333
Number Constraints Used in Cover:382
GRASP Method!
Number cuts repeat: 0
value: 48.333333
Number Constraints Used in Cover:392
GRASP Method!
Number cuts repeat: 0
value: 48.333333
Number Constraints Used in Cover:407
GRASP Method!
Number cuts repeat: 0
value: 48.333333
Number Constraints Used in Cover:419
GRASP Method!
Number cuts repeat: 0
value: 48.333333
Number Constraints Used in Cover:434
GRASP Method!
Number cuts repeat: 0
value: 48.333333
Number Constraints Used in Cover:455
GRASP Method!
Number cuts repeat: 0
value: 48.333333
Number Constraints Used in Cover:473
GRASP Method!
Number cuts repeat: 0
value: 48.333333
Number Constraints Used in Cover:482
GRASP Method!
Number cuts repeat: 0
value: 48.333333
Number Constraints Used in Cover:492
GRASP Method!
Number cuts repeat: 0
value: 48.333333
Number Constraints Used in Cover:499
GRASP Method!
Number cuts repeat: 0
value: 48.333333
Number Constraints Used in Cover:511
GRASP Method!
Number cuts repeat: 0
value: 48.333333
Number Constraints Used in Cover:521
GRASP Method!
Number cuts repeat: 0
value: 48.333333
Number Constraints Used in Cover:529
GRASP Method!
Number cuts repeat: 0
value: 48.333333
Number Constraints Used in Cover:538
GRASP Method!
Number cuts repeat: 0
value: 48.333333
Number Constraints Used in Cover:548
GRASP Method!
Number cuts repeat: 0
value: 48.333333
Number Constraints Used in Cover:558
GRASP Method!
Number cuts repeat: 0
value: 48.333333
Number Constraints Used in Cover:574
GRASP Method!
Number cuts repeat: 0
value: 48.333333
Number Constraints Used in Cover:592
GRASP Method!
Number cuts repeat: 0
value: 48.333333
Number Constraints Used in Cover:607
GRASP Method!
Number cuts repeat: 0
value: 48.333333
Number Constraints Used in Cover:617
GRASP Method!
Number cuts repeat: 0
value: 48.333333
Number Constraints Used in Cover:630
GRASP Method!
Number cuts repeat: 0
value: 48.333333
Number Constraints Used in Cover:642
GRASP Method!
Number cuts repeat: 0
value: 48.333333
Number Constraints Used in Cover:648
GRASP Method!
Number cuts repeat: 0
value: 48.333333
Number Constraints Used in Cover:657
GRASP Method!
Number cuts repeat: 0
value: 48.333333
Number Constraints Used in Cover:662
GRASP Method!
Number cuts repeat: 0
value: 48.333333
Number Constraints Used in Cover:678
GRASP Method!
Number cuts repeat: 0
value: 48.333333
Number Constraints Used in Cover:686
GRASP Method!
Number cuts repeat: 0
value: 48.333333
Number Constraints Used in Cover:697
GRASP Method!
Number cuts repeat: 0
value: 48.333333
Number Constraints Used in Cover:698
GRASP Method!
Number cuts repeat: 0
value: 48.333333
Number Constraints Used in Cover:706
GRASP Method!
Number cuts repeat: 0
value: 48.333333
Number Constraints Used in Cover:708
GRASP Method!
Number cuts repeat: 0
value: 48.333333
Number Constraints Used in Cover:716
GRASP Method!
Number cuts repeat: 0
value: 48.333333
Number Constraints Used in Cover:725
GRASP Method!
Number cuts repeat: 0
value: 48.333333
Number Constraints Used in Cover:733
GRASP Method!
Number cuts repeat: 0
value: 48.333333
Number Constraints Used in Cover:739
GRASP Method!
Number cuts repeat: 0
value: 48.333333
Number Constraints Used in Cover:746
GRASP Method!
Number cuts repeat: 0
value: 48.333333
Number Constraints Used in Cover:748
GRASP Method!
Number cuts repeat: 0
value: 48.333333
Number Constraints Used in Cover:755
GRASP Method!
Number cuts repeat: 0
value: 48.333333
Number Constraints Used in Cover:759
GRASP Method!
Number cuts repeat: 0
value: 48.333333
Number Constraints Used in Cover:765
GRASP Method!
Number cuts repeat: 0
value: 48.333333
Number Constraints Used in Cover:773
GRASP Method!
Number cuts repeat: 0
value: 48.333333
Number Constraints Used in Cover:780
GRASP Method!
Number cuts repeat: 0
value: 48.333333
Number Constraints Used in Cover:791
GRASP Method!
Number cuts repeat: 0
value: 48.333333
Number Constraints Used in Cover:793
GRASP Method!
Number cuts repeat: 0
value: 48.333333
Number Constraints Used in Cover:801
GRASP Method!
Number cuts repeat: 0
value: 48.333333
Number Constraints Used in Cover:815
GRASP Method!
Number cuts repeat: 0
value: 48.333333
Number Constraints Used in Cover:824
GRASP Method!
Number cuts repeat: 0
value: 48.333333
Number Constraints Used in Cover:831
GRASP Method!
Number cuts repeat: 0
value: 48.333333
Number Constraints Used in Cover:837
GRASP Method!
Number cuts repeat: 0
value: 48.333333
Number Constraints Used in Cover:842
GRASP Method!
Number cuts repeat: 0
value: 48.333333
Number Constraints Used in Cover:845
GRASP Method!
Number cuts repeat: 0
value: 48.333333
Number Constraints Used in Cover:848
GRASP Method!
Number cuts repeat: 0
value: 48.333333
Number Constraints Used in Cover:850
GRASP Method!
Number cuts repeat: 0
value: 48.333333
Number Constraints Used in Cover:856
GRASP Method!
Number cuts repeat: 0
value: 48.333333
Number Constraints Used in Cover:864
GRASP Method!
Number cuts repeat: 0
value: 48.333333
Number Constraints Used in Cover:868
GRASP Method!
Number cuts repeat: 0
value: 48.333333
Number Constraints Used in Cover:872
GRASP Method!
Number cuts repeat: 0
value: 48.333333
Number Constraints Used in Cover:874
GRASP Method!
Number cuts repeat: 0
value: 48.333333
Number Constraints Used in Cover:881
GRASP Method!
Number cuts repeat: 0
value: 48.333333
Number Constraints Used in Cover:883
GRASP Method!
Number cuts repeat: 0
value: 48.333333
Number Constraints Used in Cover:886
GRASP Method!
Number cuts repeat: 0
value: 48.333333
Number Constraints Used in Cover:893
GRASP Method!
Number cuts repeat: 0
value: 48.333333
Number Constraints Used in Cover:896
GRASP Method!
Number cuts repeat: 0
value: 48.333333
Number Constraints Used in Cover:901
GRASP Method!
Number cuts repeat: 0
value: 48.333333
Number Constraints Used in Cover:907
GRASP Method!
Number cuts repeat: 0
value: 48.333333
Number Constraints Used in Cover:913
GRASP Method!
Number cuts repeat: 0
value: 48.333333
Number Constraints Used in Cover:918
GRASP Method!
Number cuts repeat: 0
value: 48.333333
Number Constraints Used in Cover:919
GRASP Method!
Number cuts repeat: 0
value: 48.333333
Number Constraints Used in Cover:921
GRASP Method!
Number cuts repeat: 0
value: 48.333333
Number Constraints Used in Cover:923
GRASP Method!
Number cuts repeat: 0
value: 48.333333
Number Constraints Used in Cover:929
GRASP Method!
Number cuts repeat: 0
value: 48.333333
Number Constraints Used in Cover:931
GRASP Method!
Number cuts repeat: 0
value: 48.333333
Number Constraints Used in Cover:937
GRASP Method!
Number cuts repeat: 0
value: 48.333333
Number Cuts Final: 934
